DIMACS2
40 269 312 228 255 87 317 252 157 47 106 239 283 8 298 55 118 94 3 37 307 220 299 211 184 129 82 282 133 290 93 172 241 197 305 202 83 43 268 267 70
p edge 320 1311
e 0 10 1.0
e 0 310 1.0
e 0 292 1.0
e 0 312 16.0
e 1 154 1.0
e 1 87 31.0
e 1 49 1.0
e 1 85 1.0
e 2 99 1.0
e 2 195 1.0
e 2 209 1.0
e 2 141 1.0
e 3 41 18.0
e 3 151 49.0
e 3 301 24.0
e 3 255 29.0
e 3 197 38.0
e 4 194 1.0
e 4 182 1.0
e 4 172 19.0
e 4 251 1.0
e 5 220 29.0
e 5 135 2.0
e 5 181 1.0
e 5 263 1.0
e 6 244 1.0
e 6 144 1.0
e 6 248 1.0
e 7 153 1.0
e 7 95 1.0
e 7 134 1.0
e 7 136 1.0
e 8 234 40.0
e 8 310 42.0
e 8 135 1.0
e 8 259 48.0
e 8 37 12.0
e 8 93 34.0
e 8 197 28.0
e 8 47 34.0
e 9 67 1.0
e 9 248 1.0
e 9 96 1.0
e 9 176 1.0
e 10 199 1.0
e 10 58 2.0
e 10 85 1.0
e 10 168 1.0
e 11 56 1.0
e 11 67 1.0
e 11 299 47.0
e 11 138 2.0
e 12 75 1.0
e 12 190 2.0
e 12 70 34.0
e 12 302 1.0
e 13 142 2.0
e 13 151 2.0
e 13 33 1.0
e 13 66 1.0
e 14 236 1.0
e 14 129 42.0
e 14 37 14.0
e 14 94 8.0
e 15 244 1.0
e 15 115 1.0
e 15 216 1.0
e 15 172 21.0
e 16 198 1.0
e 16 69 2.0
e 16 169 1.0
e 16 41 1.0
e 17 204 1.0
e 17 41 1.0
e 17 7 1.0
e 17 184 39.0
e 18 188 2.0
e 18 12 2.0
e 18 79 1.0
e 18 168 1.0
e 19 276 2.0
e 19 127 1.0
e 19 233 1.0
e 19 203 1.0
e 20 228 11.0
e 20 135 1.0
e 20 294 1.0
e 20 165 1.0
e 21 33 2.0
e 21 242 2.0
e 21 102 1.0
e 21 225 1.0
e 22 271 1.0
e 22 276 1.0
e 22 47 30.0
e 22 32 2.0
e 23 122 1.0
e 23 6 1.0
e 23 230 1.0
e 23 50 1.0
e 24 152 2.0
e 24 217 1.0
e 24 289 1.0
e 25 82 37.0
e 25 63 1.0
e 25 276 1.0
e 25 144 2.0
e 26 285 2.0
e 26 12 3.0
e 26 123 3.0
e 26 275 2.0
e 27 293 1.0
e 27 302 2.0
e 27 282 6.0
e 27 297 1.0
e 28 105 2.0
e 28 27 1.0
e 28 110 1.0
e 28 223 1.0
e 29 149 1.0
e 29 95 2.0
e 29 53 1.0
e 29 169 1.0
e 30 76 1.0
e 30 98 1.0
e 30 211 11.0
e 30 141 2.0
e 31 296 1.0
e 31 138 1.0
e 31 95 1.0
e 31 175 1.0
e 32 102 1.0
e 32 53 1.0
e 32 72 1.0
e 32 273 1.0
e 33 78 1.0
e 33 77 1.0
e 33 23 1.0
e 33 250 1.0
e 34 260 2.0
e 34 128 1.0
e 34 20 2.0
e 34 120 1.0
e 35 292 2.0
e 35 236 1.0
e 35 288 1.0
e 35 223 1.0
e 36 72 1.0
e 36 215 1.0
e 36 220 9.0
e 36 316 2.0
e 37 245 31.0
e 37 307 45.0
e 37 151 20.0
e 37 78 14.0
e 38 66 1.0
e 38 84 1.0
e 38 263 1.0
e 38 238 1.0
e 39 233 1.0
e 39 155 2.0
e 39 5 1.0
e 39 306 1.0
e 40 266 2.0
e 40 64 1.0
e 40 107 1.0
e 40 274 1.0
e 41 215 1.0
e 41 308 1.0
e 41 241 11.0
e 41 116 1.0
e 42 96 1.0
e 42 257 1.0
e 42 261 1.0
e 42 235 1.0
e 43 124 24.0
e 43 237 4.0
e 43 212 16.0
e 43 122 37.0
e 43 37 28.0
e 43 70 12.0
e 43 282 24.0
e 44 205 1.0
e 44 11 1.0
e 44 211 14.0
e 44 92 3.0
e 45 178 2.0
e 45 0 2.0
e 45 208 3.0
e 45 24 1.0
e 46 297 1.0
e 46 126 1.0
e 46 140 1.0
e 46 166 1.0
e 47 125 18.0
e 47 316 31.0
e 47 308 15.0
e 47 271 43.0
e 48 226 1.0
e 48 206 2.0
e 48 243 1.0
e 48 184 47.0
e 49 134 2.0
e 49 97 1.0
e 49 109 1.0
e 49 284 1.0
e 50 72 1.0
e 50 179 1.0
e 50 11 2.0
e 50 273 1.0
e 51 130 1.0
e 51 107 1.0
e 51 147 1.0
e 51 196 2.0
e 52 122 1.0
e 52 112 1.0
e 52 302 1.0
e 52 168 1.0
e 53 270 1.0
e 53 62 1.0
e 53 284 1.0
e 53 183 1.0
e 54 305 17.0
e 54 190 1.0
e 54 108 2.0
e 54 242 1.0
e 55 142 42.0
e 55 289 49.0
e 55 130 4.0
e 55 212 2.0
e 56 268 16.0
e 56 234 1.0
e 56 184 22.0
e 56 154 2.0
e 57 250 1.0
e 57 123 2.0
e 57 58 1.0
e 57 119 2.0
e 58 44 1.0
e 58 31 1.0
e 58 292 1.0
e 58 281 1.0
e 59 298 10.0
e 59 203 1.0
e 59 237 1.0
e 59 118 40.0
e 60 96 1.0
e 60 153 1.0
e 60 61 1.0
e 60 65 1.0
e 61 55 1.0
e 61 142 1.0
e 61 37 38.0
e 61 273 1.0
e 62 235 1.0
e 62 303 1.0
e 62 286 1.0
e 62 177 1.0
e 63 209 2.0
e 63 283 9.0
e 63 296 1.0
e 63 294 3.0
e 64 25 1.0
e 64 147 1.0
e 64 21 2.0
e 64 41 1.0
e 65 15 1.0
e 65 69 2.0
e 65 48 2.0
e 65 301 2.0
e 66 56 1.0
e 66 282 35.0
e 66 275 1.0
e 66 148 1.0
e 67 123 1.0
e 67 204 2.0
e 67 169 2.0
e 67 153 1.0
e 68 4 1.0
e 68 265 2.0
e 68 134 1.0
e 68 44 1.0
e 69 94 41.0
e 69 226 1.0
e 69 44 1.0
e 69 264 1.0
e 70 100 4.0
e 70 19 37.0
e 70 300 34.0
e 70 286 35.0
e 71 46 3.0
e 71 162 2.0
e 71 103 1.0
e 71 257 1.0
e 72 156 1.0
e 72 144 1.0
e 72 91 1.0
e 72 31 1.0
e 73 158 2.0
e 73 194 2.0
e 73 309 2.0
e 73 1 1.0
e 74 149 1.0
e 74 80 1.0
e 74 168 1.0
e 75 88 1.0
e 75 26 2.0
e 75 263 1.0
e 75 24 1.0
e 76 195 2.0
e 76 317 44.0
e 76 115 1.0
e 76 149 1.0
e 77 158 1.0
e 77 207 1.0
e 77 63 1.0
e 77 305 44.0
e 78 104 1.0
e 78 278 1.0
e 78 58 1.0
e 78 302 2.0
e 79 55 39.0
e 79 258 1.0
e 79 294 1.0
e 79 235 1.0
e 80 283 16.0
e 80 37 49.0
e 80 244 1.0
e 80 61 1.0
e 81 4 3.0
e 81 38 2.0
e 81 189 1.0
e 81 136 1.0
e 82 24 6.0
e 82 115 19.0
e 82 295 33.0
e 82 113 39.0
e 82 157 20.0
e 82 241 47.0
e 83 229 40.0
e 83 228 11.0
e 83 226 5.0
e 83 127 16.0
e 83 70 6.0
e 83 82 39.0
e 83 43 14.0
e 83 93 18.0
e 83 317 34.0
e 84 97 1.0
e 84 85 1.0
e 84 258 2.0
e 84 154 1.0
e 85 135 1.0
e 85 110 1.0
e 85 21 1.0
e 85 34 1.0
e 86 277 1.0
e 86 71 1.0
e 86 111 1.0
e 86 279 2.0
e 87 218 47.0
e 87 177 2.0
e 87 109 2.0
e 87 240 7.0
e 88 47 8.0
e 88 105 2.0
e 88 63 1.0
e 88 224 1.0
e 89 258 1.0
e 89 66 1.0
e 89 99 2.0
e 89 32 1.0
e 90 115 1.0
e 90 41 1.0
e 90 68 1.0
e 90 235 1.0
e 91 13 1.0
e 91 223 2.0
e 91 256 1.0
e 91 87 20.0
e 92 126 1.0
e 92 73 2.0
e 92 91 1.0
e 92 131 1.0
e 93 313 3.0
e 93 121 30.0
e 93 161 47.0
e 93 278 17.0
e 94 212 4.0
e 94 181 22.0
e 94 270 19.0
e 94 51 12.0
e 95 73 1.0
e 95 30 2.0
e 95 203 1.0
e 95 87 43.0
e 96 265 2.0
e 96 237 1.0
e 96 170 1.0
e 96 123 1.0
e 97 253 2.0
e 97 279 1.0
e 97 68 1.0
e 97 87 44.0
e 98 173 2.0
e 98 55 20.0
e 98 170 1.0
e 98 76 2.0
e 99 25 1.0
e 99 216 1.0
e 99 174 1.0
e 99 264 1.0
e 100 190 1.0
e 100 224 1.0
e 100 116 1.0
e 100 225 1.0
e 101 299 15.0
e 101 314 1.0
e 101 211 26.0
e 101 28 1.0
e 102 18 2.0
e 102 247 1.0
e 102 44 1.0
e 102 200 2.0
e 103 310 1.0
e 103 88 1.0
e 103 95 2.0
e 103 75 1.0
e 104 73 3.0
e 104 203 1.0
e 104 21 2.0
e 104 201 2.0
e 105 313 1.0
e 105 129 31.0
e 105 280 1.0
e 105 226 1.0
e 106 93 33.0
e 106 20 5.0
e 106 189 34.0
e 106 66 27.0
e 106 83 27.0
e 106 118 4.0
e 106 129 12.0
e 107 306 1.0
e 107 216 1.0
e 107 277 1.0
e 107 226 3.0
e 108 26 3.0
e 108 313 1.0
e 108 295 1.0
e 108 45 1.0
e 109 10 2.0
e 109 131 2.0
e 109 181 1.0
e 109 159 2.0
e 110 47 19.0
e 110 43 10.0
e 110 206 1.0
e 110 217 1.0
e 111 145 1.0
e 111 244 1.0
e 111 95 1.0
e 111 140 1.0
e 112 110 1.0
e 112 202 27.0
e 112 75 1.0
e 112 51 2.0
e 113 178 1.0
e 113 185 1.0
e 113 152 2.0
e 113 259 1.0
e 114 261 1.0
e 114 270 1.0
e 114 12 1.0
e 114 157 30.0
e 115 276 1.0
e 115 8 14.0
e 115 157 16.0
e 115 46 1.0
e 116 271 2.0
e 116 237 2.0
e 116 55 9.0
e 116 50 1.0
e 117 101 1.0
e 117 241 12.0
e 117 136 1.0
e 117 77 1.0
e 118 148 36.0
e 118 295 18.0
e 118 200 42.0
e 118 160 42.0
e 119 159 1.0
e 119 82 45.0
e 119 250 2.0
e 119 72 2.0
e 120 59 1.0
e 120 115 2.0
e 120 251 1.0
e 120 102 1.0
e 121 219 1.0
e 121 315 1.0
e 121 207 1.0
e 121 103 1.0
e 122 131 1.0
e 122 317 26.0
e 122 42 1.0
e 122 239 39.0
e 123 107 1.0
e 123 217 1.0
e 123 4 1.0
e 123 22 1.0
e 124 272 1.0
e 124 126 1.0
e 124 165 1.0
e 124 242 2.0
e 125 242 1.0
e 125 317 19.0
e 125 234 1.0
e 125 57 1.0
e 126 172 17.0
e 126 317 17.0
e 126 94 48.0
e 126 93 34.0
e 127 81 2.0
e 127 225 1.0
e 127 97 1.0
e 127 173 1.0
e 128 266 1.0
e 128 153 1.0
e 128 290 8.0
e 128 152 2.0
e 129 175 20.0
e 129 147 40.0
e 129 161 36.0
e 129 281 22.0
e 130 65 1.0
e 130 0 1.0
e 130 228 5.0
e 130 269 18.0
e 131 118 21.0
e 131 48 1.0
e 131 108 1.0
e 131 199 1.0
e 132 243 1.0
e 132 76 1.0
e 132 112 2.0
e 132 171 1.0
e 133 253 26.0
e 133 20 8.0
e 133 101 5.0
e 133 129 13.0
e 133 220 16.0
e 133 307 46.0
e 133 93 35.0
e 133 106 42.0
e 134 291 1.0
e 134 284 2.0
e 134 16 1.0
e 134 166 1.0
e 135 166 1.0
e 135 190 1.0
e 135 205 1.0
e 135 271 2.0
e 136 281 2.0
e 136 141 2.0
e 136 0 1.0
e 136 282 16.0
e 137 214 1.0
e 137 122 1.0
e 137 68 1.0
e 137 42 1.0
e 138 161 1.0
e 138 297 1.0
e 138 265 1.0
e 138 67 2.0
e 139 303 1.0
e 139 54 2.0
e 139 218 1.0
e 139 208 1.0
e 140 19 1.0
e 140 266 1.0
e 140 314 1.0
e 140 151 1.0
e 141 162 1.0
e 141 195 1.0
e 141 237 1.0
e 141 115 2.0
e 142 285 2.0
e 142 231 1.0
e 142 6 1.0
e 142 301 1.0
e 143 276 2.0
e 143 151 1.0
e 143 173 1.0
e 143 105 1.0
e 144 101 1.0
e 144 287 1.0
e 144 122 1.0
e 144 239 37.0
e 145 96 1.0
e 145 179 1.0
e 145 158 1.0
e 145 148 1.0
e 146 38 1.0
e 146 303 1.0
e 146 239 47.0
e 146 234 1.0
e 147 119 1.0
e 147 189 2.0
e 147 245 1.0
e 147 282 13.0
e 148 27 1.0
e 148 25 1.0
e 148 296 2.0
e 149 206 1.0
e 149 270 1.0
e 149 144 2.0
e 149 176 1.0
e 150 292 1.0
e 150 315 1.0
e 150 169 1.0
e 150 9 2.0
e 151 43 6.0
e 151 55 28.0
e 151 62 1.0
e 151 88 1.0
e 152 35 3.0
e 152 313 1.0
e 152 239 41.0
e 152 145 1.0
e 153 316 1.0
e 153 71 1.0
e 153 291 1.0
e 153 143 1.0
e 154 15 1.0
e 154 202 42.0
e 154 160 2.0
e 154 270 1.0
e 155 205 2.0
e 155 115 1.0
e 155 241 46.0
e 155 254 2.0
e 156 155 1.0
e 156 183 3.0
e 156 290 10.0
e 156 53 2.0
e 157 87 41.0
e 157 40 7.0
e 157 185 8.0
e 157 145 24.0
e 157 197 28.0
e 158 249 1.0
e 158 191 2.0
e 158 255 4.0
e 158 263 2.0
e 159 309 2.0
e 159 265 2.0
e 159 263 1.0
e 159 208 1.0
e 160 85 1.0
e 160 285 2.0
e 160 312 33.0
e 160 249 1.0
e 161 133 41.0
e 161 92 1.0
e 161 165 1.0
e 161 220 19.0
e 162 186 1.0
e 162 26 1.0
e 162 58 2.0
e 162 231 1.0
e 163 310 1.0
e 163 148 3.0
e 163 250 1.0
e 163 307 20.0
e 164 42 1.0
e 164 92 2.0
e 164 243 1.0
e 164 21 2.0
e 165 167 1.0
e 165 300 1.0
e 165 306 1.0
e 165 46 1.0
e 166 184 5.0
e 166 85 1.0
e 166 249 2.0
e 166 301 1.0
e 167 171 1.0
e 167 14 1.0
e 167 126 2.0
e 167 227 2.0
e 168 301 1.0
e 168 71 1.0
e 168 123 1.0
e 168 134 1.0
e 169 125 1.0
e 169 188 1.0
e 169 173 1.0
e 169 316 2.0
e 170 112 1.0
e 170 192 2.0
e 170 99 1.0
e 170 161 1.0
e 171 317 23.0
e 171 32 3.0
e 171 169 1.0
e 171 36 1.0
e 172 99 24.0
e 172 94 27.0
e 172 307 49.0
e 172 30 11.0
e 173 36 1.0
e 173 255 41.0
e 173 254 1.0
e 173 140 1.0
e 174 152 2.0
e 174 176 1.0
e 174 115 1.0
e 175 284 1.0
e 175 17 2.0
e 175 3 30.0
e 175 315 1.0
e 176 102 1.0
e 176 48 2.0
e 176 276 1.0
e 176 234 1.0
e 177 253 1.0
e 177 48 3.0
e 177 98 1.0
e 177 298 11.0
e 178 158 3.0
e 178 224 1.0
e 178 30 1.0
e 178 312 15.0
e 179 89 1.0
e 179 316 3.0
e 179 311 1.0
e 179 53 1.0
e 180 198 1.0
e 180 293 2.0
e 180 13 1.0
e 180 0 1.0
e 181 219 1.0
e 181 256 1.0
e 181 157 33.0
e 181 18 1.0
e 182 179 1.0
e 182 188 1.0
e 182 309 1.0
e 182 90 2.0
e 183 189 2.0
e 183 13 1.0
e 183 211 29.0
e 183 130 1.0
e 184 52 46.0
e 184 0 36.0
e 184 275 5.0
e 184 58 15.0
e 185 311 1.0
e 185 166 2.0
e 185 194 1.0
e 185 33 1.0
e 186 23 1.0
e 186 77 1.0
e 186 131 1.0
e 186 101 1.0
e 187 285 1.0
e 187 49 1.0
e 187 167 1.0
e 187 77 1.0
e 188 146 1.0
e 188 279 1.0
e 188 22 2.0
e 188 288 1.0
e 189 186 2.0
e 189 229 2.0
e 189 48 1.0
e 189 308 1.0
e 190 159 1.0
e 190 275 3.0
e 190 68 3.0
e 190 79 1.0
e 191 70 10.0
e 191 149 1.0
e 191 224 1.0
e 191 241 43.0
e 192 280 2.0
e 192 30 1.0
e 192 295 1.0
e 192 123 1.0
e 193 269 49.0
e 193 144 2.0
e 193 311 1.0
e 193 219 1.0
e 194 106 2.0
e 194 210 2.0
e 194 10 1.0
e 194 201 2.0
e 195 310 1.0
e 195 180 2.0
e 195 118 13.0
e 195 97 1.0
e 196 192 1.0
e 196 172 14.0
e 196 67 2.0
e 196 296 1.0
e 197 45 1.0
e 197 265 13.0
e 197 183 33.0
e 197 145 17.0
e 198 82 13.0
e 198 192 1.0
e 198 316 2.0
e 198 86 1.0
e 199 152 2.0
e 199 176 1.0
e 199 228 13.0
e 199 290 6.0
e 200 162 1.0
e 200 85 1.0
e 200 212 1.0
e 200 245 1.0
e 201 106 12.0
e 201 193 2.0
e 201 238 2.0
e 202 55 32.0
e 202 1 46.0
e 202 73 28.0
e 202 164 29.0
e 202 118 9.0
e 203 293 1.0
e 203 183 1.0
e 203 285 1.0
e 203 57 1.0
e 204 208 1.0
e 204 281 2.0
e 204 237 1.0
e 204 99 1.0
e 205 15 1.0
e 205 77 1.0
e 205 293 1.0
e 205 112 1.0
e 206 225 1.0
e 206 294 1.0
e 206 71 3.0
e 206 268 20.0
e 207 311 1.0
e 207 127 2.0
e 207 220 27.0
e 207 238 1.0
e 208 198 2.0
e 208 195 2.0
e 208 14 1.0
e 208 76 1.0
e 209 194 2.0
e 209 218 1.0
e 209 94 23.0
e 209 79 1.0
e 210 247 2.0
e 210 315 1.0
e 210 85 1.0
e 210 248 2.0
e 211 214 6.0
e 211 182 39.0
e 211 71 17.0
e 211 253 44.0
e 212 281 2.0
e 212 51 1.0
e 212 278 1.0
e 212 249 1.0
e 213 74 1.0
e 213 201 1.0
e 213 278 1.0
e 213 90 1.0
e 214 276 1.0
e 214 297 1.0
e 214 128 2.0
e 214 227 1.0
e 215 40 1.0
e 215 308 1.0
e 215 3 13.0
e 215 175 1.0
e 216 42 1.0
e 216 311 1.0
e 216 223 2.0
e 216 23 1.0
e 217 200 2.0
e 217 262 1.0
e 217 271 2.0
e 217 107 1.0
e 218 52 1.0
e 218 178 1.0
e 218 102 1.0
e 218 273 2.0
e 219 197 5.0
e 219 114 1.0
e 219 286 1.0
e 219 267 40.0
e 220 121 46.0
e 220 307 38.0
e 220 180 17.0
e 220 25 42.0
e 221 273 1.0
e 221 146 1.0
e 221 252 38.0
e 221 51 1.0
e 222 16 1.0
e 222 284 1.0
e 222 149 1.0
e 222 150 1.0
e 223 248 1.0
e 223 219 2.0
e 223 3 48.0
e 223 221 1.0
e 224 199 1.0
e 224 208 1.0
e 224 190 1.0
e 224 169 1.0
e 225 35 1.0
e 225 159 1.0
e 225 186 1.0
e 225 136 1.0
e 226 278 2.0
e 226 150 1.0
e 226 295 1.0
e 226 114 2.0
e 227 57 1.0
e 227 48 1.0
e 227 6 1.0
e 227 207 1.0
e 228 67 34.0
e 228 124 2.0
e 228 86 16.0
e 228 249 35.0
e 228 255 30.0
e 229 37 10.0
e 229 186 1.0
e 229 225 1.0
e 229 305 31.0
e 230 229 1.0
e 230 213 1.0
e 230 159 1.0
e 230 183 2.0
e 231 211 4.0
e 231 87 7.0
e 231 127 1.0
e 231 61 1.0
e 232 9 1.0
e 232 255 10.0
e 232 234 1.0
e 232 101 1.0
e 233 180 2.0
e 233 309 2.0
e 233 237 1.0
e 233 63 2.0
e 234 184 32.0
e 234 243 1.0
e 234 263 1.0
e 234 98 1.0
e 235 245 1.0
e 235 197 44.0
e 235 156 2.0
e 235 268 22.0
e 236 46 1.0
e 236 262 1.0
e 236 93 12.0
e 236 283 26.0
e 237 267 30.0
e 237 38 1.0
e 237 314 1.0
e 237 23 1.0
e 238 262 1.0
e 238 198 1.0
e 238 214 2.0
e 238 80 1.0
e 239 272 43.0
e 239 254 9.0
e 239 70 34.0
e 239 57 9.0
e 240 19 1.0
e 240 32 1.0
e 240 270 1.0
e 240 259 1.0
e 241 310 46.0
e 241 293 20.0
e 241 146 13.0
e 241 131 42.0
e 242 264 2.0
e 242 150 1.0
e 242 129 43.0
e 242 79 2.0
e 243 221 1.0
e 243 167 1.0
e 243 237 1.0
e 243 254 2.0
e 244 160 1.0
e 244 74 1.0
e 244 24 1.0
e 245 70 32.0
e 245 78 2.0
e 245 256 1.0
e 245 3 14.0
e 246 280 1.0
e 246 126 1.0
e 246 131 1.0
e 246 275 1.0
e 247 126 1.0
e 247 315 1.0
e 247 117 1.0
e 247 292 1.0
e 248 117 1.0
e 248 40 3.0
e 248 39 1.0
e 248 35 1.0
e 249 308 2.0
e 249 318 1.0
e 249 33 3.0
e 249 191 1.0
e 250 226 1.0
e 250 206 1.0
e 250 47 44.0
e 250 199 1.0
e 251 158 3.0
e 251 24 1.0
e 251 182 2.0
e 251 86 2.0
e 252 173 29.0
e 252 33 25.0
e 252 26 37.0
e 252 129 44.0
e 252 157 30.0
e 252 305 18.0
e 252 133 46.0
e 253 216 1.0
e 253 193 1.0
e 253 314 1.0
e 253 92 1.0
e 254 284 2.0
e 254 57 1.0
e 254 56 2.0
e 254 59 1.0
e 255 311 17.0
e 255 52 14.0
e 255 199 34.0
e 255 240 13.0
e 256 150 1.0
e 256 292 1.0
e 256 200 2.0
e 256 264 1.0
e 257 298 27.0
e 257 158 2.0
e 257 176 1.0
e 257 90 2.0
e 258 108 1.0
e 258 313 2.0
e 258 220 1.0
e 258 224 1.0
e 259 172 24.0
e 259 78 2.0
e 259 136 1.0
e 259 280 1.0
e 260 292 2.0
e 260 141 1.0
e 260 23 1.0
e 260 318 1.0
e 261 281 1.0
e 261 239 48.0
e 261 312 26.0
e 261 100 2.0
e 262 309 2.0
e 262 58 1.0
e 262 118 22.0
e 262 22 1.0
e 263 123 1.0
e 263 309 1.0
e 263 77 1.0
e 263 184 6.0
e 264 117 1.0
e 264 130 1.0
e 265 194 2.0
e 265 204 3.0
e 265 164 2.0
e 265 221 3.0
e 266 289 1.0
e 266 300 1.0
e 266 291 1.0
e 266 164 1.0
e 267 4 34.0
e 267 134 49.0
e 267 261 20.0
e 267 202 32.0
e 267 197 46.0
e 267 228 20.0
e 267 252 49.0
e 268 117 40.0
e 268 276 24.0
e 268 24 16.0
e 268 29 35.0
e 269 274 27.0
e 269 122 13.0
e 269 268 21.0
e 269 65 44.0
e 269 298 8.0
e 269 3 45.0
e 269 267 42.0
e 270 188 1.0
e 270 184 27.0
e 270 236 1.0
e 271 225 2.0
e 271 152 1.0
e 271 234 2.0
e 271 302 1.0
e 272 308 1.0
e 272 46 1.0
e 272 80 1.0
e 272 186 2.0
e 273 92 1.0
e 273 0 1.0
e 273 147 1.0
e 273 19 1.0
e 274 176 1.0
e 274 199 1.0
e 274 85 1.0
e 274 292 2.0
e 275 65 2.0
e 275 120 1.0
e 275 286 1.0
e 275 235 1.0
e 276 166 2.0
e 276 131 2.0
e 276 196 3.0
e 276 66 2.0
e 277 309 1.0
e 277 131 1.0
e 277 236 1.0
e 277 65 1.0
e 278 184 21.0
e 278 29 1.0
e 278 89 1.0
e 278 53 1.0
e 279 198 2.0
e 279 144 1.0
e 279 72 1.0
e 279 98 2.0
e 280 46 1.0
e 280 163 1.0
e 280 64 1.0
e 280 258 2.0
e 281 182 1.0
e 281 278 1.0
e 281 95 1.0
e 281 226 1.0
e 282 262 18.0
e 282 150 25.0
e 282 263 47.0
e 282 18 20.0
e 283 178 47.0
e 283 192 21.0
e 283 19 4.0
e 283 29 22.0
e 283 202 7.0
e 283 268 26.0
e 284 174 1.0
e 284 213 1.0
e 284 309 1.0
e 284 214 1.0
e 285 79 1.0
e 285 25 2.0
e 285 236 1.0
e 285 9 1.0
e 286 177 1.0
e 286 268 27.0
e 286 277 1.0
e 286 313 1.0
e 287 45 3.0
e 287 173 1.0
e 287 311 2.0
e 287 299 6.0
e 288 111 1.0
e 288 178 1.0
e 288 212 1.0
e 288 15 1.0
e 289 87 36.0
e 289 236 1.0
e 289 88 1.0
e 289 226 1.0
e 290 76 44.0
e 290 287 9.0
e 290 184 12.0
e 290 196 7.0
e 290 255 14.0
e 290 8 35.0
e 291 87 17.0
e 291 179 1.0
e 291 46 1.0
e 291 230 3.0
e 292 183 2.0
e 292 235 1.0
e 292 172 7.0
e 292 144 1.0
e 293 6 1.0
e 293 81 2.0
e 293 256 1.0
e 293 275 1.0
e 294 194 2.0
e 294 218 2.0
e 294 158 1.0
e 294 75 1.0
e 295 239 22.0
e 295 19 1.0
e 295 38 1.0
e 295 91 1.0
e 296 36 1.0
e 296 23 1.0
e 296 99 2.0
e 296 67 2.0
e 297 195 2.0
e 297 126 1.0
e 297 4 1.0
e 297 234 1.0
e 298 275 16.0
e 298 183 6.0
e 298 141 5.0
e 298 21 41.0
e 298 282 30.0
e 299 5 27.0
e 299 13 29.0
e 299 300 46.0
e 299 190 27.0
e 299 269 33.0
e 300 11 1.0
e 300 158 1.0
e 300 117 1.0
e 300 45 1.0
e 301 162 1.0
e 301 47 8.0
e 301 141 2.0
e 301 80 1.0
e 302 137 1.0
e 302 48 1.0
e 302 66 1.0
e 302 101 1.0
e 303 310 1.0
e 303 112 1.0
e 303 206 1.0
e 303 125 1.0
e 304 258 2.0
e 304 165 1.0
e 304 173 1.0
e 304 127 2.0
e 305 91 17.0
e 305 253 32.0
e 305 230 39.0
e 305 120 22.0
e 305 283 48.0
e 306 285 1.0
e 306 199 1.0
e 306 152 2.0
e 306 48 1.0
e 307 81 46.0
e 307 117 35.0
e 307 299 11.0
e 307 211 17.0
e 308 221 1.0
e 308 94 15.0
e 308 60 1.0
e 308 280 1.0
e 309 7 3.0
e 309 256 2.0
e 309 55 45.0
e 309 201 2.0
e 310 13 1.0
e 310 285 2.0
e 310 216 1.0
e 311 236 1.0
e 311 219 2.0
e 311 168 1.0
e 311 13 2.0
e 312 202 5.0
e 312 285 24.0
e 312 34 49.0
e 312 215 17.0
e 312 290 31.0
e 313 116 1.0
e 313 189 1.0
e 313 279 1.0
e 313 241 9.0
e 314 304 1.0
e 314 115 1.0
e 314 279 1.0
e 314 95 1.0
e 315 313 1.0
e 315 29 1.0
e 315 42 1.0
e 315 309 1.0
e 316 96 1.0
e 316 116 1.0
e 316 63 1.0
e 316 39 1.0
e 317 167 9.0
e 317 243 1.0
e 317 221 1.0
e 317 139 18.0
e 318 100 1.0
e 318 252 45.0
e 318 78 2.0
e 318 256 1.0
e 319 34 1.0
e 319 46 1.0
e 319 147 2.0
e 319 87 31.0
